70
1 0 7
2 1 18
3 0 19
3 1 9
3 2 11
4 0 4
4 1 18
4 2 11
4 3 15
5 0 2
5 1 20
5 4 7
6 0 18
6 2 3
6 3 1
6 4 13
7 1 8
7 2 2
7 5 15
7 6 4
8 0 1
8 1 7
8 2 6
8 3 2
8 4 18
8 5 20
8 6 13
8 7 9
9 0 5
9 1 15
9 2 7
9 3 17
9 5 3
9 7 10
9 8 4
10 4 10
10 5 11
10 6 17
10 7 10
10 8 11
10 9 4
11 0 12
11 1 8
11 2 10
11 4 12
11 5 20
11 6 19
11 7 17
11 8 10
11 9 17
12 0 20
12 1 2
12 2 4
12 3 17
12 4 19
12 5 16
12 7 2
12 9 15
12 10 17
12 11 5
13 0 19
13 1 19
13 2 2
13 5 14
13 6 20
13 7 1
13 8 5
13 10 20
13 11 4
13 12 13
14 0 20
14 1 13
14 2 18
14 3 19
14 4 6
14 5 13
14 7 4
14 8 12
14 12 1
14 13 5
15 0 2
15 2 15
15 3 8
15 4 12
15 6 14
15 8 7
15 10 20
15 11 4
15 13 15
15 14 15
16 0 11
16 1 10
16 3 7
16 4 10
16 9 3
16 10 20
16 11 1
16 12 11
16 13 18
16 14 16
17 3 10
17 5 14
17 8 17
17 9 6
17 10 6
17 11 18
17 12 16
17 14 7
17 15 6
17 16 14
18 0 5
18 1 1
18 3 13
18 4 7
18 5 17
18 6 5
18 7 12
18 8 13
18 10 19
18 11 13
18 12 14
18 13 5
18 14 19
18 16 7
18 17 9
19 0 7
19 1 4
19 2 20
19 3 16
19 4 20
19 5 18
19 6 20
19 7 15
19 8 6
19 9 5
19 12 2
19 13 15
19 14 13
19 15 7
19 16 15
19 17 17
19 18 7
20 0 20
20 1 14
20 2 16
20 3 20
20 5 6
20 6 1
20 8 14
20 9 16
20 10 12
20 11 5
20 12 16
20 13 17
20 14 20
20 15 2
20 19 8
21 0 18
21 1 9
21 2 13
21 3 14
21 4 20
21 5 12
21 6 6
21 7 5
21 8 17
21 9 19
21 10 14
21 11 7
21 12 15
21 13 18
21 14 20
21 15 8
21 16 19
21 17 8
21 18 3
21 19 20
21 20 2
22 0 11
22 2 12
22 3 11
22 4 12
22 5 4
22 6 7
22 7 12
22 8 17
22 9 15
22 11 3
22 12 18
22 13 3
22 14 10
22 15 2
22 16 14
22 17 16
22 18 5
22 20 14
23 0 11
23 1 16
23 2 16
23 3 12
23 5 13
23 7 10
23 8 1
23 9 16
23 10 13
23 11 13
23 12 14
23 13 5
23 14 20
23 15 4
23 16 14
23 19 10
23 20 5
23 22 15
24 0 17
24 1 16
24 2 7
24 4 6
24 6 17
24 7 16
24 8 20
24 9 10
24 10 2
24 12 10
24 13 7
24 14 10
24 15 8
24 16 5
24 17 19
24 18 19
24 19 3
24 21 18
24 23 15
25 0 20
25 1 9
25 2 16
25 3 9
25 4 16
25 5 17
25 6 2
25 7 1
25 8 11
25 9 16
25 10 15
25 11 15
25 12 14
25 14 3
25 15 9
25 16 15
25 17 2
25 20 17
25 21 8
25 22 5
25 23 12
25 24 7
26 0 15
26 1 9
26 2 17
26 3 18
26 4 2
26 5 7
26 6 20
26 7 2
26 8 3
26 9 2
26 10 14
26 11 8
26 12 20
26 13 9
26 15 3
26 16 20
26 17 13
26 18 2
26 19 8
26 20 1
26 21 14
26 22 18
26 23 12
26 24 16
26 25 4
27 1 14
27 2 3
27 4 5
27 5 18
27 7 11
27 8 4
27 9 9
27 10 3
27 11 14
27 12 1
27 14 6
27 15 18
27 16 2
27 18 11
27 19 17
27 20 11
27 21 8
27 22 6
27 23 15
27 24 20
27 25 12
27 26 17
28 0 9
28 1 16
28 2 13
28 3 3
28 6 14
28 7 11
28 8 19
28 9 4
28 10 17
28 12 1
28 13 15
28 14 18
28 15 12
28 16 20
28 17 6
28 18 17
28 19 11
28 20 9
28 21 10
28 22 2
28 23 2
28 24 20
28 26 3
29 0 12
29 1 12
29 2 20
29 4 10
29 5 14
29 6 5
29 9 16
29 10 2
29 11 3
29 12 11
29 13 12
29 14 11
29 15 13
29 17 15
29 18 12
29 20 4
29 21 10
29 22 16
29 23 11
29 24 6
29 26 18
29 28 4
30 1 11
30 3 1
30 4 4
30 5 13
30 8 6
30 9 13
30 10 13
30 12 16
30 13 16
30 14 4
30 16 14
30 17 4
30 18 3
30 19 1
30 22 6
30 23 8
30 25 7
30 26 15
30 27 7
30 28 6
30 29 8
31 0 17
31 3 17
31 4 15
31 5 12
31 6 18
31 7 4
31 8 14
31 9 14
31 11 16
31 12 10
31 14 13
31 15 8
31 16 18
31 17 10
31 18 7
31 19 19
31 20 11
31 21 2
31 22 20
31 23 10
31 24 1
31 25 14
31 26 6
31 27 16
31 30 12
32 0 18
32 1 1
32 2 11
32 3 13
32 4 2
32 7 7
32 8 12
32 9 6
32 10 9
32 11 1
32 12 10
32 13 3
32 14 13
32 15 9
32 16 17
32 18 3
32 20 20
32 21 20
32 22 2
32 23 5
32 24 19
32 25 18
32 26 16
32 27 7
32 28 10
32 30 12
32 31 5
33 0 17
33 1 14
33 2 18
33 3 12
33 4 6
33 5 4
33 7 17
33 8 20
33 9 14
33 10 3
33 12 7
33 13 17
33 14 7
33 15 18
33 16 13
33 17 1
33 18 9
33 19 19
33 22 8
33 23 10
33 24 7
33 25 9
33 26 13
33 27 2
33 28 15
33 29 16
33 30 11
33 31 6
33 32 7
34 0 15
34 1 5
34 2 20
34 3 18
34 4 13
34 5 10
34 6 6
34 7 3
34 8 12
34 10 20
34 11 12
34 12 17
34 13 7
34 15 5
34 16 7
34 17 9
34 18 18
34 19 16
34 21 5
34 22 11
34 23 15
34 24 16
34 25 19
34 26 12
34 27 8
34 28 7
34 30 4
34 31 3
34 32 6
34 33 15
35 0 20
35 1 8
35 3 13
35 4 13
35 5 15
35 6 17
35 7 12
35 8 8
35 9 18
35 10 16
35 11 7
35 13 8
35 16 1
35 19 13
35 20 2
35 21 5
35 22 11
35 23 17
35 24 8
35 25 14
35 26 14
35 27 14
35 28 6
35 30 12
35 31 15
35 32 20
35 33 11
35 34 9
36 0 15
36 1 20
36 2 9
36 4 4
36 5 14
36 6 10
36 7 18
36 8 2
36 9 8
36 10 7
36 11 1
36 12 2
36 13 17
36 14 15
36 15 2
36 16 10
36 17 13
36 18 18
36 19 19
36 20 20
36 21 17
36 22 1
36 23 5
36 24 17
36 25 17
36 26 5
36 27 8
36 28 5
36 29 15
36 30 10
36 32 11
36 33 9
37 0 17
37 1 13
37 2 6
37 3 6
37 5 9
37 7 12
37 8 13
37 9 8
37 10 1
37 11 8
37 12 20
37 13 13
37 14 6
37 16 16
37 17 7
37 18 18
37 19 13
37 22 7
37 23 1
37 25 2
37 26 13
37 27 9
37 28 4
37 30 9
37 31 10
37 32 1
37 33 4
37 34 17
37 35 14
37 36 8
38 2 10
38 3 11
38 4 1
38 5 16
38 7 11
38 8 12
38 9 2
38 10 3
38 11 7
38 13 17
38 14 16
38 15 8
38 16 18
38 20 12
38 21 12
38 22 3
38 23 7
38 24 18
38 25 13
38 26 8
38 29 12
38 30 15
38 31 1
38 33 14
38 35 19
39 0 3
39 2 13
39 4 17
39 5 5
39 6 4
39 8 2
39 11 9
39 13 14
39 14 12
39 15 14
39 16 8
39 18 3
39 19 19
39 20 18
39 21 11
39 24 3
39 25 8
39 26 5
39 27 2
39 28 2
39 29 15
39 31 16
39 32 4
39 33 8
39 35 14
39 36 9
39 37 10
39 38 4
40 1 15
40 2 8
40 3 2
40 4 12
40 5 13
40 6 10
40 7 5
40 8 20
40 11 4
40 14 14
40 15 20
40 16 7
40 18 5
40 20 12
40 21 19
40 22 12
40 23 13
40 24 5
40 26 6
40 27 1
40 28 8
40 30 13
40 31 2
40 33 20
40 34 3
40 35 11
40 38 12
40 39 10
41 0 8
41 1 18
41 2 13
41 3 8
41 4 13
41 5 10
41 6 16
41 7 13
41 8 14
41 10 1
41 11 13
41 12 16
41 13 16
41 14 3
41 16 15
41 17 7
41 18 9
41 19 8
41 20 12
41 21 18
41 22 9
41 23 12
41 24 3
41 26 2
41 27 12
41 30 12
41 31 3
41 32 7
41 33 1
41 34 12
41 35 10
41 36 16
41 37 14
41 38 13
41 39 20
41 40 7
42 0 11
42 1 6
42 4 15
42 5 10
42 6 15
42 7 9
42 9 15
42 10 8
42 11 4
42 12 8
42 13 6
42 14 17
42 15 5
42 16 7
42 18 19
42 20 19
42 22 13
42 24 19
42 25 11
42 26 2
42 27 18
42 29 2
42 30 20
42 31 18
42 33 10
42 35 3
42 36 7
42 39 17
42 40 2
42 41 17
43 1 17
43 3 15
43 4 2
43 5 15
43 6 19
43 7 17
43 8 20
43 9 10
43 11 17
43 12 6
43 14 13
43 16 7
43 18 14
43 20 18
43 21 14
43 22 4
43 23 13
43 24 1
43 25 11
43 26 8
43 27 19
43 29 18
43 30 20
43 31 3
43 32 6
43 33 18
43 34 1
43 35 1
43 36 1
43 38 9
43 39 7
43 40 3
43 42 11
44 0 3
44 1 13
44 4 4
44 5 7
44 6 1
44 7 7
44 8 1
44 10 13
44 11 6
44 12 1
44 13 2
44 14 15
44 15 15
44 17 10
44 18 18
44 20 1
44 22 8
44 23 1
44 24 11
44 26 12
44 27 19
44 29 13
44 31 2
44 32 8
44 33 5
44 34 7
44 35 15
44 36 8
44 37 2
44 38 1
44 39 2
44 40 15
44 41 8
44 42 13
44 43 5
45 1 19
45 3 4
45 5 12
45 6 17
45 7 10
45 8 11
45 9 15
45 10 14
45 11 3
45 12 19
45 14 5
45 15 11
45 16 7
45 18 2
45 20 13
45 21 6
45 22 5
45 23 11
45 24 17
45 25 13
45 26 12
45 27 11
45 28 11
45 30 19
45 31 6
45 32 13
45 34 15
45 35 20
45 37 6
45 38 13
45 39 9
45 42 6
45 43 5
46 1 3
46 2 8
46 3 9
46 5 1
46 6 5
46 7 20
46 8 8
46 9 9
46 10 8
46 11 3
46 12 1
46 13 14
46 15 11
46 16 6
46 17 15
46 18 12
46 19 6
46 21 11
46 22 16
46 23 16
46 25 1
46 26 2
46 27 16
46 28 7
46 30 10
46 31 18
46 32 8
46 33 16
46 34 7
46 35 19
46 36 15
46 37 13
46 38 13
46 39 15
46 40 13
46 41 6
46 43 1
46 44 11
46 45 16
47 1 5
47 4 2
47 5 18
47 6 5
47 7 10
47 8 10
47 12 12
47 14 6
47 15 10
47 16 19
47 17 18
47 18 12
47 19 8
47 20 1
47 21 8
47 22 19
47 23 18
47 24 13
47 26 5
47 29 2
47 30 10
47 31 20
47 33 1
47 34 17
47 35 3
47 37 5
47 38 16
47 40 14
47 41 10
47 42 11
47 43 18
47 44 2
47 45 1
47 46 15
48 0 20
48 1 11
48 2 3
48 4 11
48 5 13
48 6 4
48 8 18
48 9 13
48 11 19
48 12 9
48 13 17
48 14 10
48 16 10
48 17 3
48 18 15
48 19 15
48 20 8
48 23 17
48 24 2
48 25 20
48 26 7
48 27 12
48 28 12
48 29 12
48 31 17
48 32 1
48 33 15
48 34 13
48 35 8
48 36 10
48 38 12
48 39 18
48 40 11
48 42 18
48 44 13
48 45 6
48 46 9
48 47 20
49 1 3
49 2 18
49 4 14
49 5 9
49 6 6
49 8 7
49 9 11
49 10 18
49 11 5
49 12 14
49 13 4
49 14 3
49 15 6
49 16 10
49 17 14
49 19 5
49 20 8
49 21 1
49 23 19
49 24 17
49 25 2
49 26 8
49 27 6
49 28 1
49 29 16
49 30 5
49 32 12
49 34 8
49 35 2
49 36 1
49 37 1
49 38 12
49 39 14
49 40 18
49 42 20
49 43 5
49 44 2
49 45 16
49 47 1
49 48 7
50 1 8
50 3 17
50 4 13
50 7 20
50 8 6
50 9 18
50 10 16
50 11 14
50 13 15
50 14 18
50 15 7
50 16 1
50 19 5
50 20 17
50 21 8
50 22 4
50 24 2
50 26 13
50 27 8
50 28 13
50 29 14
50 30 5
50 31 4
50 32 13
50 33 12
50 34 17
50 35 3
50 36 14
50 37 19
50 38 20
50 41 8
50 42 3
50 43 7
50 44 3
50 45 5
50 46 13
50 47 8
50 48 19
50 49 4
51 0 5
51 1 14
51 2 18
51 3 18
51 4 10
51 5 11
51 7 11
51 8 18
51 9 13
51 10 12
51 11 18
51 12 8
51 14 6
51 16 17
51 17 9
51 18 10
51 19 1
51 20 4
51 21 18
51 22 14
51 23 12
51 24 11
51 25 3
51 26 18
51 28 7
51 29 2
51 30 14
51 31 19
51 32 18
51 33 7
51 34 12
51 36 3
51 38 15
51 39 17
51 40 5
51 42 15
51 43 18
51 44 7
51 45 1
51 46 8
51 47 20
51 48 12
51 49 10
51 50 1
52 0 9
52 1 8
52 2 20
52 3 12
52 4 18
52 5 6
52 6 17
52 8 1
52 9 10
52 10 4
52 11 16
52 12 14
52 13 2
52 14 2
52 15 16
52 16 1
52 17 3
52 18 13
52 20 3
52 21 19
52 22 4
52 23 10
52 25 5
52 26 15
52 27 2
52 28 5
52 29 20
52 30 16
52 31 12
52 33 9
52 34 4
52 35 8
52 37 13
52 38 19
52 40 12
52 42 14
52 43 7
52 44 13
52 45 10
52 46 4
52 48 4
52 49 13
52 50 19
53 1 2
53 2 5
53 3 17
53 4 12
53 5 1
53 7 18
53 8 18
53 9 10
53 10 14
53 11 12
53 14 12
53 16 7
53 17 17
53 18 13
53 20 9
53 21 13
53 23 5
53 24 18
53 26 17
53 27 8
53 28 19
53 29 8
53 31 13
53 32 2
53 33 11
53 35 18
53 36 18
53 37 8
53 38 17
53 40 13
53 42 20
53 43 10
53 44 14
53 46 16
53 47 8
53 48 11
53 49 13
53 50 2
53 51 16
53 52 13
54 0 8
54 1 11
54 2 20
54 3 13
54 4 12
54 5 9
54 6 3
54 7 9
54 8 3
54 9 19
54 10 2
54 15 7
54 16 18
54 18 6
54 19 2
54 20 10
54 23 10
54 24 11
54 25 19
54 26 12
54 27 2
54 28 14
54 29 10
54 30 16
54 31 14
54 32 18
54 33 8
54 34 13
54 35 20
54 36 9
54 37 9
54 39 14
54 41 2
54 42 3
54 43 3
54 44 12
54 46 11
54 47 10
54 48 19
54 49 1
54 50 4
54 51 18
54 52 17
55 0 8
55 1 10
55 2 7
55 3 4
55 4 20
55 5 6
55 7 9
55 8 13
55 9 15
55 10 7
55 11 12
55 14 20
55 15 7
55 16 19
55 17 8
55 18 16
55 19 12
55 21 10
55 22 18
55 23 11
55 24 8
55 26 4
55 27 3
55 28 4
55 29 13
55 30 11
55 33 2
55 34 4
55 36 14
55 37 2
55 38 4
55 39 20
55 40 14
55 41 3
55 42 17
55 43 9
55 44 2
55 45 19
55 46 7
55 47 19
55 50 15
55 51 14
55 52 11
55 53 19
55 54 11
56 0 4
56 1 9
56 2 6
56 4 15
56 6 15
56 9 14
56 10 5
56 11 17
56 12 14
56 13 15
56 15 8
56 16 11
56 17 13
56 18 16
56 19 16
56 20 18
56 21 6
56 22 2
56 26 13
56 28 9
56 29 5
56 31 18
56 34 18
56 35 7
56 36 5
56 37 19
56 38 19
56 39 3
56 40 17
56 41 16
56 43 15
56 45 3
56 46 14
56 47 15
56 49 8
56 50 20
56 52 8
56 53 16
56 54 12
57 2 7
57 3 14
57 4 19
57 5 9
57 6 12
57 7 11
57 8 12
57 9 17
57 10 17
57 11 16
57 12 19
57 13 7
57 14 20
57 16 14
57 17 8
57 18 6
57 19 5
57 21 18
57 22 16
57 23 2
57 25 1
57 26 2
57 27 10
57 28 1
57 29 10
57 30 19
57 32 4
57 33 6
57 34 10
57 36 14
57 37 2
57 38 16
57 39 20
57 44 9
57 45 5
57 46 17
57 48 12
57 49 12
57 50 12
57 51 10
57 52 19
57 53 7
57 54 6
57 55 6
57 56 2
58 0 18
58 1 2
58 2 1
58 3 10
58 4 12
58 5 19
58 6 8
58 7 2
58 8 6
58 9 1
58 10 17
58 12 5
58 13 18
58 15 15
58 16 15
58 18 7
58 19 13
58 20 7
58 21 16
58 23 7
58 24 9
58 25 4
58 26 14
58 27 4
58 28 7
58 29 2
58 30 11
58 32 1
58 33 15
58 34 5
58 35 14
58 37 10
58 40 13
58 41 19
58 44 2
58 45 4
58 46 6
58 47 5
58 48 2
58 49 20
58 50 10
58 51 3
58 54 7
58 55 18
58 56 15
58 57 20
59 0 15
59 1 11
59 3 2
59 4 13
59 5 6
59 6 11
59 7 16
59 8 19
59 9 9
59 10 6
59 13 18
59 14 7
59 15 5
59 16 14
59 17 11
59 18 10
59 19 18
59 20 14
59 23 1
59 24 5
59 25 2
59 28 7
59 29 5
59 30 9
59 31 6
59 34 10
59 35 7
59 36 15
59 37 12
59 38 1
59 40 10
59 42 5
59 44 20
59 45 16
59 46 15
59 47 12
59 48 3
59 49 6
59 50 20
59 51 17
59 52 6
59 53 15
59 54 2
59 55 16
59 56 17
59 57 14
60 0 15
60 1 18
60 2 3
60 3 3
60 5 9
60 6 5
60 7 18
60 8 19
60 9 9
60 10 15
60 12 20
60 13 4
60 14 4
60 15 17
60 17 18
60 18 14
60 20 14
60 21 11
60 22 3
60 23 2
60 24 14
60 25 5
60 26 4
60 27 3
60 29 8
60 32 9
60 33 16
60 34 11
60 35 1
60 36 14
60 37 12
60 39 8
60 42 6
60 43 12
60 44 6
60 45 14
60 46 15
60 47 11
60 48 17
60 49 12
60 50 9
60 51 13
60 52 15
60 53 12
60 55 7
60 56 8
60 57 7
60 59 13
61 0 14
61 1 12
61 2 16
61 3 11
61 5 2
61 6 2
61 10 7
61 11 18
61 12 3
61 13 9
61 15 9
61 16 17
61 17 16
61 18 13
61 19 13
61 20 3
61 21 1
61 22 6
61 23 17
61 24 4
61 26 19
61 28 19
61 29 12
61 30 17
61 31 19
61 32 11
61 33 10
61 34 17
61 35 5
61 36 5
61 38 11
61 39 3
61 40 18
61 41 10
61 42 7
61 45 15
61 46 14
61 47 16
61 48 16
61 50 7
61 51 20
61 52 7
61 53 8
61 54 11
61 55 4
61 56 9
61 57 12
61 58 1
61 59 4
61 60 20
62 0 4
62 1 16
62 2 2
62 3 6
62 4 13
62 5 2
62 7 5
62 8 10
62 10 9
62 11 8
62 12 15
62 13 17
62 15 17
62 16 13
62 17 9
62 18 4
62 19 3
62 21 16
62 22 7
62 23 12
62 24 5
62 25 6
62 26 20
62 27 3
62 28 5
62 29 18
62 30 3
62 31 10
62 32 15
62 33 7
62 34 16
62 35 6
62 36 5
62 37 3
62 38 17
62 39 3
62 40 16
62 41 18
62 43 4
62 44 10
62 45 17
62 46 7
62 48 2
62 49 7
62 50 20
62 51 10
62 52 3
62 53 9
62 54 5
62 55 1
62 57 1
62 58 1
62 61 5
63 0 17
63 1 6
63 2 3
63 3 14
63 4 3
63 6 13
63 7 11
63 8 19
63 10 3
63 11 1
63 13 4
63 15 13
63 16 2
63 17 4
63 18 8
63 19 6
63 20 16
63 21 13
63 22 6
63 23 7
63 24 4
63 25 19
63 26 1
63 28 3
63 29 16
63 30 20
63 32 7
63 33 16
63 34 4
63 35 8
63 36 1
63 37 15
63 39 12
63 41 4
63 42 6
63 44 2
63 46 1
63 47 19
63 48 19
63 49 1
63 50 13
63 53 9
63 54 2
63 55 19
63 56 6
63 57 12
63 58 20
63 59 8
63 61 9
63 62 18
64 2 16
64 4 15
64 5 8
64 6 19
64 7 10
64 8 7
64 12 1
64 16 12
64 17 20
64 18 13
64 19 17
64 20 7
64 21 14
64 22 17
64 23 19
64 24 19
64 25 3
64 27 17
64 28 15
64 29 17
64 30 4
64 34 13
64 35 14
64 37 18
64 39 17
64 40 7
64 41 11
64 42 14
64 43 17
64 44 12
64 46 8
64 47 6
64 49 5
64 51 6
64 52 5
64 55 12
64 56 2
64 57 4
64 58 3
64 61 19
64 63 13
65 0 7
65 1 12
65 2 5
65 3 16
65 4 2
65 5 17
65 6 9
65 7 7
65 8 17
65 9 16
65 10 11
65 14 20
65 15 8
65 16 6
65 17 15
65 18 3
65 19 14
65 20 12
65 21 19
65 22 4
65 23 16
65 24 16
65 25 19
65 26 18
65 27 16
65 28 2
65 30 16
65 31 13
65 32 12
65 33 13
65 34 7
65 35 2
65 36 18
65 37 12
65 38 20
65 39 2
65 40 3
65 41 1
65 43 2
65 44 8
65 45 16
65 46 1
65 47 5
65 48 20
65 49 18
65 50 5
65 51 18
65 52 10
65 53 6
65 54 17
65 55 19
65 56 5
65 57 10
65 58 17
65 59 6
65 60 13
65 61 6
65 62 20
65 63 13
65 64 3
66 1 20
66 2 15
66 3 13
66 4 4
66 5 6
66 6 3
66 7 5
66 9 13
66 11 15
66 12 3
66 13 11
66 14 17
66 15 4
66 16 15
66 17 15
66 18 6
66 19 12
66 20 18
66 21 2
66 23 12
66 24 20
66 26 10
66 27 8
66 28 2
66 29 18
66 30 19
66 31 20
66 32 18
66 34 18
66 36 10
66 38 1
66 39 17
66 41 18
66 42 17
66 43 3
66 44 18
66 45 5
66 46 12
66 47 11
66 49 7
66 50 2
66 51 6
66 52 10
66 53 9
66 54 18
66 55 16
66 56 9
66 58 18
66 59 18
66 60 10
66 62 8
66 63 6
66 64 8
66 65 4
67 0 15
67 1 2
67 2 3
67 3 11
67 4 10
67 6 5
67 9 2
67 10 2
67 11 5
67 12 6
67 13 1
67 14 20
67 15 14
67 16 20
67 17 12
67 18 11
67 20 17
67 21 6
67 23 3
67 24 19
67 25 15
67 26 12
67 28 5
67 29 19
67 31 2
67 32 16
67 33 16
67 34 13
67 35 18
67 36 20
67 39 16
67 40 14
67 41 19
67 43 6
67 44 18
67 45 7
67 46 15
67 47 1
67 49 17
67 50 12
67 52 12
67 53 20
67 54 17
67 55 18
67 56 15
67 57 5
67 58 5
67 59 12
67 60 17
67 61 17
67 62 15
67 65 9
67 66 19
68 0 17
68 1 5
68 2 8
68 3 19
68 4 13
68 5 1
68 6 17
68 8 2
68 10 12
68 11 11
68 12 20
68 13 15
68 14 15
68 15 12
68 16 15
68 17 15
68 18 15
68 20 12
68 21 17
68 22 4
68 23 18
68 24 3
68 27 6
68 28 2
68 30 16
68 31 16
68 32 7
68 33 9
68 35 20
68 36 16
68 37 1
68 41 11
68 42 20
68 43 15
68 44 8
68 45 3
68 46 6
68 47 9
68 48 4
68 49 17
68 50 17
68 52 19
68 53 15
68 54 17
68 57 11
68 58 5
68 59 14
68 60 8
68 62 1
68 63 1
68 64 2
68 65 18
68 66 17
68 67 5
69 1 7
69 2 18
69 5 15
69 7 2
69 8 8
69 9 17
69 10 16
69 11 8
69 13 8
69 14 1
69 15 2
69 16 19
69 17 10
69 18 8
69 20 1
69 21 12
69 22 7
69 24 14
69 25 15
69 26 12
69 27 8
69 29 14
69 30 3
69 32 2
69 33 15
69 35 3
69 38 10
69 41 12
69 42 8
69 43 10
69 44 15
69 45 19
69 46 14
69 48 3
69 49 16
69 50 8
69 51 3
69 52 11
69 53 19
69 54 17
69 55 3
69 56 16
69 57 20
69 58 10
69 59 10
69 60 7
69 61 9
69 62 17
69 63 7
69 64 1
69 65 15
69 66 7
69 68 20
